language Essence 1.3

letting bot_end be [253, 39, 206, 373, 174, 56, 366, 365, 377, 259, 88, 167, 290, 6, 358, 304, 126, 99; int(1..18)]
letting bot_start be [154, 277, 82, 16, 1, 44, 181, 244, 367, 328, 114, 365, 140, 250, 215, 259, 56, 278; int(1..18)]
letting bots be 18
letting buffer_col be 2
letting buffer_row be 2
letting corridor_size be 1
letting n_shelves_col be 3
letting n_shelves_row be 13
letting shelf_col_size be 2
letting shelf_row_size be 1
